(set-info :smt-lib-version 2.6)
(set-logic UF)
(set-info :source |Benchmarks from the paper: "Extending Sledgehammer with SMT Solvers" by Jasmin Blanchette, Sascha Bohme, and Lawrence C. Paulson, CADE 2011.  Translated to SMT2 by Andrew Reynolds and Morgan Deters.|)
(set-info :category "industrial")
(set-info :status unknown)
(declare-sort S1 0)
(declare-sort S2 0)
(declare-sort S3 0)
(declare-sort S4 0)
(declare-sort S5 0)
(declare-sort S6 0)
(declare-sort S7 0)
(declare-sort S8 0)
(declare-sort S9 0)
(declare-sort S10 0)
(declare-sort S11 0)
(declare-sort S12 0)
(declare-sort S13 0)
(declare-sort S14 0)
(declare-sort S15 0)
(declare-sort S16 0)
(declare-sort S17 0)
(declare-sort S18 0)
(declare-fun f1 () S1)
(declare-fun f2 () S1)
(declare-fun f3 (S3 S4) S1)
(declare-fun f4 () S4)
(declare-fun f5 (S5 S6) S1)
(declare-fun f6 (S7 S7 S8) S5)
(declare-fun f7 () S7)
(declare-fun f8 () S7)
(declare-fun f9 (S9 S8) S8)
(declare-fun f10 (S10 S2) S9)
(declare-fun f11 () S10)
(declare-fun f12 () S2)
(declare-fun f13 (S11 S8) S9)
(declare-fun f14 () S11)
(declare-fun f15 (S12 S2) S8)
(declare-fun f16 () S12)
(declare-fun f17 (S3) S6)
(declare-fun f18 () S7)
(declare-fun f19 (S8 S13) S1)
(declare-fun f20 () S12)
(declare-fun f21 (S3) S13)
(declare-fun f22 () S3)
(declare-fun f23 (S2 S14) S1)
(declare-fun f24 () S14)
(declare-fun f25 (S13 S8) S1)
(declare-fun f26 (S13) S13)
(declare-fun f27 (S15 S7) S8)
(declare-fun f28 () S15)
(declare-fun f29 (S16 S3) S3)
(declare-fun f30 (S17 S5) S16)
(declare-fun f31 () S17)
(declare-fun f32 (S18 S7) S2)
(declare-fun f33 () S18)
(assert (not (= f1 f2)))
(assert (not (exists ((?v0 S2) (?v1 S3)) (let ((?v_0 (f15 f16 ?v0))) (and (= (f3 ?v1 f4) f1) (= (f5 (f6 f7 f8 (f9 (f10 f11 f12) (f9 (f13 f14 ?v_0) ?v_0))) (f17 ?v1)) f1))))))
(assert (not (= f7 f18)))
(assert (not (= (f19 (f15 f20 f12) (f21 f22)) f1)))
(assert (= (f23 f12 f24) f1))
(assert (= (f3 f22 f4) f1))
(assert (forall ((?v0 S8) (?v1 S8) (?v2 S3)) (let ((?v_0 (f21 ?v2))) (=> (= (f19 (f9 (f13 f14 ?v0) ?v1) ?v_0) f1) (=> (=> (= (f19 ?v0 ?v_0) f1) (=> (= (f19 ?v1 ?v_0) f1) false)) false)))))
(assert (forall ((?v0 S2)) (not (= (f19 (f15 f16 ?v0) (f21 f22)) f1))))
(assert (forall ((?v0 S2) (?v1 S8)) (not (= (f19 (f9 (f10 f11 ?v0) ?v1) (f21 f22)) f1))))
(assert (forall ((?v0 S7) (?v1 S7) (?v2 S8) (?v3 S3)) (=> (= (f5 (f6 ?v0 ?v1 ?v2) (f17 ?v3)) f1) (= (f19 ?v2 (f21 ?v3)) f1))))
(assert (forall ((?v0 S8) (?v1 S8) (?v2 S3)) (let ((?v_0 (f21 ?v2))) (=> (= (f19 (f9 (f13 f14 ?v0) ?v1) ?v_0) f1) (and (= (f19 ?v0 ?v_0) f1) (= (f19 ?v1 ?v_0) f1))))))
(assert (forall ((?v0 S2) (?v1 S2) (?v2 S8)) (not (= (f15 f16 ?v0) (f9 (f10 f11 ?v1) ?v2)))))
(assert (forall ((?v0 S2) (?v1 S8) (?v2 S2)) (not (= (f9 (f10 f11 ?v0) ?v1) (f15 f16 ?v2)))))
(assert (forall ((?v0 S2) (?v1 S8) (?v2 S8)) (not (= (f15 f16 ?v0) (f9 (f13 f14 ?v1) ?v2)))))
(assert (forall ((?v0 S8) (?v1 S8) (?v2 S2)) (not (= (f9 (f13 f14 ?v0) ?v1) (f15 f16 ?v2)))))
(assert (forall ((?v0 S2) (?v1 S2)) (not (= (f15 f20 ?v0) (f15 f16 ?v1)))))
(assert (forall ((?v0 S2) (?v1 S2)) (not (= (f15 f16 ?v0) (f15 f20 ?v1)))))
(assert (forall ((?v0 S2) (?v1 S8) (?v2 S8) (?v3 S8)) (not (= (f9 (f10 f11 ?v0) ?v1) (f9 (f13 f14 ?v2) ?v3)))))
(assert (forall ((?v0 S2) (?v1 S2)) (= (= (f15 f20 ?v0) (f15 f20 ?v1)) (= ?v0 ?v1))))
(assert (forall ((?v0 S8) (?v1 S8) (?v2 S8) (?v3 S8)) (= (= (f9 (f13 f14 ?v0) ?v1) (f9 (f13 f14 ?v2) ?v3)) (and (= ?v0 ?v2) (= ?v1 ?v3)))))
(assert (forall ((?v0 S2) (?v1 S8) (?v2 S2) (?v3 S8)) (= (= (f9 (f10 f11 ?v0) ?v1) (f9 (f10 f11 ?v2) ?v3)) (and (= ?v0 ?v2) (= ?v1 ?v3)))))
(assert (forall ((?v0 S2) (?v1 S2)) (= (= (f15 f16 ?v0) (f15 f16 ?v1)) (= ?v0 ?v1))))
(assert (forall ((?v0 S7) (?v1 S7) (?v2 S8) (?v3 S7) (?v4 S7) (?v5 S8)) (= (= (f6 ?v0 ?v1 ?v2) (f6 ?v3 ?v4 ?v5)) (and (= ?v0 ?v3) (and (= ?v1 ?v4) (= ?v2 ?v5))))))
(assert (forall ((?v0 S2) (?v1 S2)) (=> (not (= (= (f23 ?v0 f24) f1) (= (f23 ?v1 f24) f1))) (not (= ?v0 ?v1)))))
(assert (forall ((?v0 S8) (?v1 S8) (?v2 S2)) (not (= (f9 (f13 f14 ?v0) ?v1) (f15 f20 ?v2)))))
(assert (forall ((?v0 S2) (?v1 S8) (?v2 S8)) (not (= (f15 f20 ?v0) (f9 (f13 f14 ?v1) ?v2)))))
(assert (forall ((?v0 S2) (?v1 S8) (?v2 S2)) (not (= (f9 (f10 f11 ?v0) ?v1) (f15 f20 ?v2)))))
(assert (forall ((?v0 S2) (?v1 S2) (?v2 S8)) (not (= (f15 f20 ?v0) (f9 (f10 f11 ?v1) ?v2)))))
(assert (forall ((?v0 S8) (?v1 S8) (?v2 S2) (?v3 S8)) (not (= (f9 (f13 f14 ?v0) ?v1) (f9 (f10 f11 ?v2) ?v3)))))
(assert (forall ((?v0 S3)) (exists ((?v1 S2)) (not (= (f19 (f15 f16 ?v1) (f21 ?v0)) f1)))))
(assert (forall ((?v0 S13) (?v1 S8) (?v2 S2)) (let ((?v_0 (f26 ?v0))) (=> (= (f25 ?v_0 ?v1) f1) (=> (= (f25 ?v0 (f15 f20 ?v2)) f1) (= (f25 ?v_0 (f9 (f10 f11 ?v2) ?v1)) f1))))))
(assert (forall ((?v0 S3) (?v1 S2) (?v2 S7) (?v3 S7) (?v4 S7) (?v5 S2)) (let ((?v_2 (f15 f20 ?v1)) (?v_4 (f27 f28 ?v3)) (?v_1 (f13 f14 (f27 f28 ?v4))) (?v_0 (f15 f16 ?v5))) (let ((?v_3 (f13 f14 ?v_2))) (=> (= (f3 ?v0 f4) f1) (=> (not (= (f19 ?v_2 (f21 ?v0)) f1)) (=> (= (f23 ?v1 f24) f1) (=> (= (f5 (f6 ?v2 f18 (f9 (f13 f14 ?v_4) (f9 ?v_1 ?v_0))) (f17 ?v0)) f1) (= (f3 (f29 (f30 f31 (f6 f18 ?v3 (f9 (f10 f11 (f32 f33 ?v3)) (f9 (f13 f14 ?v_0) (f9 ?v_1 (f9 ?v_3 (f9 (f10 f11 (f32 f33 ?v4)) (f9 ?v_3 ?v_4)))))))) ?v0) f4) f1)))))))))
(assert (forall ((?v0 S3) (?v1 S2) (?v2 S2) (?v3 S7) (?v4 S7) (?v5 S7)) (let ((?v_0 (f15 f16 ?v1))) (=> (= (f3 ?v0 f4) f1) (=> (not (= (f19 ?v_0 (f21 ?v0)) f1)) (=> (= (f23 ?v2 f24) f1) (=> (= (f5 (f6 ?v3 ?v4 (f9 (f10 f11 (f32 f33 ?v4)) (f9 (f13 f14 (f15 f20 ?v2)) (f27 f28 ?v5)))) (f17 ?v0)) f1) (= (f3 (f29 (f30 f31 (f6 ?v4 ?v5 (f9 (f10 f11 ?v2) ?v_0))) ?v0) f4) f1))))))))
(check-sat)
(exit)
